NAME : ClusterId_51 
COMMENT : (Gillet and Johnson) 
TYPE : CVRP 
DIMENSION : 16 
EDGE_WEIGHT_TYPE : EUC_2D 
CAPACITY : 160 
NODE_COORD_SECTION 
51 20 20 
40 5 6 
33 46 10 
45 39 10 
19 13 13 
42 21 10 
41 10 17 
13 5 25 
44 30 15 
15 36 16 
25 7 38 
14 12 42 
37 32 22 
17 27 23 
18 17 33 
4 20 26 
DEMAND_SECTION 
51 2330
40 7
33 23
45 10
19 9
42 13
41 27
13 23
44 16
15 10
25 28
14 21
37 9
17 3
18 41
4 9
DEPOT_SECTION 
51
 -1
EOF